Welcome to the CBC MILP Solver 
Version: Trunk
Build Date: Apr 16 2020 

Starting solution of the Linear programming relaxation problem using Primal Simplex

Using Python-MIP package version 1.8.1
Machines:  3 Jobs:  3
Order: 
Job  0 : machine 1 ( 7 ) machine 2 ( 7 ) machine 0 ( 1 ) 
Job  1 : machine 1 ( 4 ) machine 0 ( 3 ) machine 2 ( 7 ) 
Job  2 : machine 1 ( 7 ) machine 2 ( 6 ) machine 0 ( 2 ) 
K:  33
Job  0 , e: machine  0 ( 14 ) machine  1 ( 0 ) machine  2 ( 7 ) 
Job  1 , e: machine  0 ( 4 ) machine  1 ( 0 ) machine  2 ( 7 ) 
Job  2 , e: machine  0 ( 13 ) machine  1 ( 0 ) machine  2 ( 7 ) 
Job  0 , f: machine  0 ( 0 ) machine  1 ( 8 ) machine  2 ( 1 ) 
Job  1 , f: machine  0 ( 7 ) machine  1 ( 10 ) machine  2 ( 0 ) 
Job  2 , f: machine  0 ( 0 ) machine  1 ( 8 ) machine  2 ( 2 ) 
EST and LST:
Job: 0 Machine: 0 EST: 14 LST: 32
Job: 0 Machine: 1 EST: 0 LST: 18
Job: 0 Machine: 2 EST: 7 LST: 25
Job: 1 Machine: 0 EST: 4 LST: 23
Job: 1 Machine: 1 EST: 0 LST: 19
Job: 1 Machine: 2 EST: 7 LST: 26
Job: 2 Machine: 0 EST: 13 LST: 31
Job: 2 Machine: 1 EST: 0 LST: 18
Job: 2 Machine: 2 EST: 7 LST: 25
Order:
Job: 0 Machine: 0 = 2 
Job: 0 Machine: 1 = 0 
Job: 0 Machine: 2 = 1 
Job: 1 Machine: 0 = 1 
Job: 1 Machine: 1 = 0 
Job: 1 Machine: 2 = 2 
Job: 2 Machine: 0 = 2 
Job: 2 Machine: 1 = 0 
Job: 2 Machine: 2 = 1 
Distances:
Job 0, Machine 1 -> Machine 2: distance 7
Job 0, Machine 1 -> Machine 0: distance 14
Job 0, Machine 2 -> Machine 0: distance 7
Job 1, Machine 1 -> Machine 0: distance 4
Job 1, Machine 1 -> Machine 2: distance 7
Job 1, Machine 0 -> Machine 2: distance 3
Job 2, Machine 1 -> Machine 2: distance 7
Job 2, Machine 1 -> Machine 0: distance 13
Job 2, Machine 2 -> Machine 0: distance 6
McCormic linearization
14.0 13.0 2
0.0 0.0 4
0.0 0.0 7
0.0 0.0 7
7.0 7.0 7
7.0 7.0 6
[(0, 1), (0, 0), (2, 1), (2, 0), (1, 1)]
obj:  0.0
solutions:  1
+ 0.14285714285714285x(0,1) + 0.14285714285714285x(2,1) 
C:  18.499999999999996
x(0,0) = 17.50	 x(0,1) = 3.50	 x(0,2) = 10.50	 
x(1,0) = 8.50	 x(1,1) = 4.50	 x(1,2) = 11.50	 
x(2,0) = 16.50	 x(2,1) = 3.50	 x(2,2) = 10.50	 
y(0,1,0) = 0.00	 y(1,0,0) = 1.00	 
y(0,2,0) = 0.90	 y(2,0,0) = 0.10	 
y(1,2,0) = 0.59	 y(2,1,0) = 0.41	 
y(0,1,1) = 0.22	 y(1,0,1) = 0.78	 
y(0,2,1) = 0.72	 y(2,0,1) = 0.28	 
y(1,2,1) = 0.36	 y(2,1,1) = 0.64	 
y(0,1,2) = 0.76	 y(1,0,2) = 0.24	 
y(0,2,2) = 0.42	 y(2,0,2) = 0.58	 
y(1,2,2) = 0.50	 y(2,1,2) = 0.50	 
17.499999999999996 16.499999999999996 2
4.499999999999996 3.5000000000000053 7
11.499999999999995 10.5 6
obj:  0.638095238095238
solutions:  1
+ 0.06666666666666667x(0,1) + 0.06666666666666668x(2,1) + 0.038095238095238085x(1,1) 
[(0, 1), (0, 0), (2, 1), (2, 0), (1, 1)]
cliques:  1 mip: 10
C:  21.999999999999996
x(0,0) = 17.83	 x(0,1) = 3.83	 x(0,2) = 10.83	 
x(1,0) = 11.29	 x(1,1) = 7.29	 x(1,2) = 15.00	 
x(2,0) = 20.00	 x(2,1) = 7.00	 x(2,2) = 14.00	 
y(0,1,0) = 0.00	 y(1,0,0) = 1.00	 
y(0,2,0) = 0.93	 y(2,0,0) = 0.07	 
y(1,2,0) = 0.46	 y(2,1,0) = 0.54	 
y(0,1,1) = 0.86	 y(1,0,1) = 0.14	 
y(0,2,1) = 0.45	 y(2,0,1) = 0.55	 
y(1,2,1) = 0.27	 y(2,1,1) = 0.73	 
y(0,1,2) = 0.53	 y(1,0,2) = 0.47	 
y(0,2,2) = 0.38	 y(2,0,2) = 0.62	 
y(1,2,2) = 0.69	 y(2,1,2) = 0.31	 
7.291666666666673 6.999999999999999 7
14.999999999999995 13.999999999999998 6
obj:  1.0
erro
[(0, 1), (1, 2), (2, 1), (1, 1), (0, 2)]
cliques:  0 mip: 28
C:  22.453059051997304
x(0,0) = 19.83	 x(0,1) = 5.07	 x(0,2) = 12.83	 
x(1,0) = 9.85	 x(1,1) = 5.85	 x(1,2) = 12.85	 
x(2,0) = 19.59	 x(2,1) = 6.59	 x(2,2) = 13.59	 
y(0,1,0) = 0.00	 y(1,0,0) = 1.00	 
y(0,2,0) = 0.81	 y(2,0,0) = 0.19	 
y(1,2,0) = 0.85	 y(2,1,0) = 0.15	 
y(0,1,1) = 0.48	 y(1,0,1) = 0.52	 
y(0,2,1) = 0.34	 y(2,0,1) = 0.66	 
y(1,2,1) = 0.86	 y(2,1,1) = 0.14	 
y(0,1,2) = 0.27	 y(1,0,2) = 0.73	 
y(0,2,2) = 0.59	 y(2,0,2) = 0.41	 
y(1,2,2) = 0.33	 y(2,1,2) = 0.67	 
19.833491271850527 19.589586323655077 2
obj:  1.0000000000000004
erro
[(0, 1), (0, 0), (2, 1), (2, 0), (1, 1)]
cliques:  0 mip: 40
C:  23.096843126377077
x(0,0) = 21.19	 x(0,1) = 5.37	 x(0,2) = 14.19	 
x(1,0) = 6.78	 x(1,1) = 2.67	 x(1,2) = 11.13	 
x(2,0) = 21.10	 x(2,1) = 8.10	 x(2,2) = 15.10	 
y(0,1,0) = 0.00	 y(1,0,0) = 1.00	 
y(0,2,0) = 0.46	 y(2,0,0) = 0.54	 
y(1,2,0) = 0.75	 y(2,1,0) = 0.25	 
y(0,1,1) = 0.06	 y(1,0,1) = 0.94	 
y(0,2,1) = 0.39	 y(2,0,1) = 0.61	 
y(1,2,1) = 0.88	 y(2,1,1) = 0.12	 
y(0,1,2) = 0.15	 y(1,0,2) = 0.85	 
y(0,2,2) = 0.39	 y(2,0,2) = 0.61	 
y(1,2,2) = 0.62	 y(2,1,2) = 0.38	 
21.186498298790877 21.09684312637708 2
5.3746209041548605 2.674937946569101 4
14.186498298790875 11.13132588499777 7
obj:  0.9999999999999999
erro
[(0, 1), (0, 0), (2, 1), (2, 0), (1, 1)]
cliques:  0 mip: 39
C:  23.999994008898813
x(0,0) = 21.50	 x(0,1) = 7.50	 x(0,2) = 14.50	 
x(1,0) = 11.00	 x(1,1) = 7.00	 x(1,2) = 14.00	 
x(2,0) = 22.00	 x(2,1) = 3.50	 x(2,2) = 11.65	 
y(0,1,0) = 0.00	 y(1,0,0) = 1.00	 
y(0,2,0) = 0.75	 y(2,0,0) = 0.25	 
y(1,2,0) = 0.53	 y(2,1,0) = 0.47	 
y(0,1,1) = 0.40	 y(1,0,1) = 0.60	 
y(0,2,1) = 0.21	 y(2,0,1) = 0.79	 
y(1,2,1) = 0.22	 y(2,1,1) = 0.78	 
y(0,1,2) = 0.25	 y(1,0,2) = 0.75	 
y(0,2,2) = 0.13	 y(2,0,2) = 0.87	 
y(1,2,2) = 0.15	 y(2,1,2) = 0.85	 
7.499985920912456 7.000020968853346 4
7.499985920912456 3.500002096885632 7
7.000020968853346 3.500002096885632 7
14.49998592091245 14.000020968853374 7
14.000020968853374 11.648607140034182 6
obj:  1.0
erro
[(0, 1), (0, 0), (2, 1), (2, 0), (1, 1)]
cliques:  0 mip: 37
C:  24.265884634288586
x(0,0) = 18.70	 x(0,1) = 4.70	 x(0,2) = 11.70	 
x(1,0) = 11.16	 x(1,1) = 7.16	 x(1,2) = 14.16	 
x(2,0) = 19.70	 x(2,1) = 6.20	 x(2,2) = 13.20	 
y(0,1,0) = 0.00	 y(1,0,0) = 1.00	 
y(0,2,0) = 1.00	 y(2,0,0) = -0.00	 
y(1,2,0) = 0.73	 y(2,1,0) = 0.27	 
y(0,1,1) = 0.40	 y(1,0,1) = 0.60	 
y(0,2,1) = 0.56	 y(2,0,1) = 0.44	 
y(1,2,1) = 0.49	 y(2,1,1) = 0.51	 
y(0,1,2) = 0.76	 y(1,0,2) = 0.24	 
y(0,2,2) = 0.31	 y(2,0,2) = 0.69	 
y(1,2,2) = 0.39	 y(2,1,2) = 0.61	 
7.163564866264279 6.204834489303789 7
14.163564866264277 13.204834489303785 6
obj:  1.0
erro
[(0, 1), (0, 0), (2, 1), (2, 0), (1, 1)]
cliques:  0 mip: 30
C:  24.99999578860721
x(0,0) = 22.00	 x(0,1) = 7.35	 x(0,2) = 15.00	 
x(1,0) = 10.73	 x(1,1) = 6.73	 x(1,2) = 13.73	 
x(2,0) = 23.00	 x(2,1) = 5.65	 x(2,2) = 13.12	 
y(0,1,0) = 0.00	 y(1,0,0) = 1.00	 
y(0,2,0) = 1.00	 y(2,0,0) = 0.00	 
y(1,2,0) = 0.60	 y(2,1,0) = 0.40	 
y(0,1,1) = 0.15	 y(1,0,1) = 0.85	 
y(0,2,1) = 0.38	 y(2,0,1) = 0.62	 
y(1,2,1) = 0.78	 y(2,1,1) = 0.22	 
y(0,1,2) = 0.25	 y(1,0,2) = 0.75	 
y(0,2,2) = 0.17	 y(2,0,2) = 0.83	 
y(1,2,2) = 0.22	 y(2,1,2) = 0.78	 
7.354328393767323 6.734903398284968 4
7.354328393767323 5.645663183447103 7
6.734903398284968 5.645663183447103 7
14.999995788607217 13.734903398284969 7
13.734903398284969 13.122388522902543 6
obj:  1.1232338536537223
erro
[(0, 1), (0, 0), (2, 1), (2, 0), (1, 1)]
cliques:  0 mip: 35
C:  24.999995788607176
x(0,0) = 22.00	 x(0,1) = 4.00	 x(0,2) = 11.00	 
x(1,0) = 15.00	 x(1,1) = 10.50	 x(1,2) = 18.00	 
x(2,0) = 23.00	 x(2,1) = 5.00	 x(2,2) = 12.00	 
y(0,1,0) = 0.00	 y(1,0,0) = 1.00	 
y(0,2,0) = 1.00	 y(2,0,0) = 0.00	 
y(1,2,0) = 0.49	 y(2,1,0) = 0.51	 
y(0,1,1) = 0.90	 y(1,0,1) = 0.10	 
y(0,2,1) = 0.43	 y(2,0,1) = 0.57	 
y(1,2,1) = 0.59	 y(2,1,1) = 0.41	 
y(0,1,2) = 1.00	 y(1,0,2) = 0.00	 
y(0,2,2) = 0.29	 y(2,0,2) = 0.71	 
y(1,2,2) = 0.00	 y(2,1,2) = 1.00	 
10.499512143133426 5.000186584572968 7
17.999690515061904 12.000186584572967 6
obj:  0.9999999999999998
erro
[(0, 1), (0, 0), (2, 1), (2, 0), (1, 1)]
cliques:  0 mip: 17
C:  25.011822506774358
x(0,0) = 22.01	 x(0,1) = 3.75	 x(0,2) = 10.75	 
x(1,0) = 14.38	 x(1,1) = 10.38	 x(1,2) = 17.38	 
x(2,0) = 23.01	 x(2,1) = 5.32	 x(2,2) = 12.32	 
y(0,1,0) = 0.00	 y(1,0,0) = 1.00	 
y(0,2,0) = 1.00	 y(2,0,0) = 0.00	 
y(1,2,0) = 0.50	 y(2,1,0) = 0.50	 
y(0,1,1) = 0.99	 y(1,0,1) = 0.01	 
y(0,2,1) = 0.78	 y(2,0,1) = 0.22	 
y(1,2,1) = 0.49	 y(2,1,1) = 0.51	 
y(0,1,2) = 0.89	 y(1,0,2) = 0.11	 
y(0,2,2) = 0.78	 y(2,0,2) = 0.22	 
y(1,2,2) = 0.06	 y(2,1,2) = 0.94	 
10.378976926259881 5.323780783118774 7
17.3789769262592 12.323780783118773 6
obj:  0.9999999999999998
erro
[(0, 1), (0, 0), (2, 1), (2, 0), (1, 1)]
cliques:  0 mip: 38
C:  25.011822506774354
x(0,0) = 22.01	 x(0,1) = 3.75	 x(0,2) = 10.75	 
x(1,0) = 14.38	 x(1,1) = 10.38	 x(1,2) = 17.38	 
x(2,0) = 23.01	 x(2,1) = 5.32	 x(2,2) = 12.32	 
y(0,1,0) = 0.00	 y(1,0,0) = 1.00	 
y(0,2,0) = 1.00	 y(2,0,0) = 0.00	 
y(1,2,0) = 0.50	 y(2,1,0) = 0.50	 
y(0,1,1) = 0.99	 y(1,0,1) = 0.01	 
y(0,2,1) = 0.78	 y(2,0,1) = 0.22	 
y(1,2,1) = 0.49	 y(2,1,1) = 0.51	 
y(0,1,2) = 0.89	 y(1,0,2) = 0.11	 
y(0,2,2) = 0.78	 y(2,0,2) = 0.22	 
y(1,2,2) = 0.06	 y(2,1,2) = 0.94	 
10.378976926260517 5.323780783117436 7
17.378976926260513 12.323780783117437 6
obj:  1.0
erro
[(0, 1), (0, 0), (2, 1), (2, 0), (1, 1)]
cliques:  0 mip: 35
C:  25.011822506774354
x(0,0) = 22.01	 x(0,1) = 3.75	 x(0,2) = 10.75	 
x(1,0) = 14.38	 x(1,1) = 10.38	 x(1,2) = 17.38	 
x(2,0) = 23.01	 x(2,1) = 5.32	 x(2,2) = 12.32	 
y(0,1,0) = 0.00	 y(1,0,0) = 1.00	 
y(0,2,0) = 1.00	 y(2,0,0) = 0.00	 
y(1,2,0) = 0.50	 y(2,1,0) = 0.50	 
y(0,1,1) = 0.99	 y(1,0,1) = 0.01	 
y(0,2,1) = 0.78	 y(2,0,1) = 0.22	 
y(1,2,1) = 0.49	 y(2,1,1) = 0.51	 
y(0,1,2) = 0.89	 y(1,0,2) = 0.11	 
y(0,2,2) = 0.78	 y(2,0,2) = 0.22	 
y(1,2,2) = 0.06	 y(2,1,2) = 0.94	 
10.378976926260517 5.323780783117436 7
17.378976926260513 12.323780783117437 6
obj:  1.0
erro
[(0, 1), (0, 0), (2, 1), (2, 0), (1, 1)]
cliques:  0 mip: 35
C:  25.011822506774354
x(0,0) = 22.01	 x(0,1) = 3.75	 x(0,2) = 10.75	 
x(1,0) = 14.38	 x(1,1) = 10.38	 x(1,2) = 17.38	 
x(2,0) = 23.01	 x(2,1) = 5.32	 x(2,2) = 12.32	 
y(0,1,0) = 0.00	 y(1,0,0) = 1.00	 
y(0,2,0) = 1.00	 y(2,0,0) = 0.00	 
y(1,2,0) = 0.50	 y(2,1,0) = 0.50	 
y(0,1,1) = 0.99	 y(1,0,1) = 0.01	 
y(0,2,1) = 0.78	 y(2,0,1) = 0.22	 
y(1,2,1) = 0.49	 y(2,1,1) = 0.51	 
y(0,1,2) = 0.89	 y(1,0,2) = 0.11	 
y(0,2,2) = 0.78	 y(2,0,2) = 0.22	 
y(1,2,2) = 0.06	 y(2,1,2) = 0.94	 
10.378976926260517 5.323780783117436 7
17.378976926260513 12.323780783117437 6
obj:  1.0
erro
[(0, 1), (0, 0), (2, 1), (2, 0), (1, 1)]
cliques:  0 mip: 35
C:  25.011822506774354
x(0,0) = 22.01	 x(0,1) = 3.75	 x(0,2) = 10.75	 
x(1,0) = 14.38	 x(1,1) = 10.38	 x(1,2) = 17.38	 
x(2,0) = 23.01	 x(2,1) = 5.32	 x(2,2) = 12.32	 
y(0,1,0) = 0.00	 y(1,0,0) = 1.00	 
y(0,2,0) = 1.00	 y(2,0,0) = 0.00	 
y(1,2,0) = 0.50	 y(2,1,0) = 0.50	 
y(0,1,1) = 0.99	 y(1,0,1) = 0.01	 
y(0,2,1) = 0.78	 y(2,0,1) = 0.22	 
y(1,2,1) = 0.49	 y(2,1,1) = 0.51	 
y(0,1,2) = 0.89	 y(1,0,2) = 0.11	 
y(0,2,2) = 0.78	 y(2,0,2) = 0.22	 
y(1,2,2) = 0.06	 y(2,1,2) = 0.94	 
10.378976926260517 5.323780783117436 7
17.378976926260513 12.323780783117437 6
obj:  1.0
erro
[(0, 1), (0, 0), (2, 1), (2, 0), (1, 1)]
cliques:  0 mip: 35
C:  25.011822506774354
x(0,0) = 22.01	 x(0,1) = 3.75	 x(0,2) = 10.75	 
x(1,0) = 14.38	 x(1,1) = 10.38	 x(1,2) = 17.38	 
x(2,0) = 23.01	 x(2,1) = 5.32	 x(2,2) = 12.32	 
y(0,1,0) = 0.00	 y(1,0,0) = 1.00	 
y(0,2,0) = 1.00	 y(2,0,0) = 0.00	 
y(1,2,0) = 0.50	 y(2,1,0) = 0.50	 
y(0,1,1) = 0.99	 y(1,0,1) = 0.01	 
y(0,2,1) = 0.78	 y(2,0,1) = 0.22	 
y(1,2,1) = 0.49	 y(2,1,1) = 0.51	 
y(0,1,2) = 0.89	 y(1,0,2) = 0.11	 
y(0,2,2) = 0.78	 y(2,0,2) = 0.22	 
y(1,2,2) = 0.06	 y(2,1,2) = 0.94	 
10.378976926260517 5.323780783117436 7
17.378976926260513 12.323780783117437 6
obj:  1.0
erro
[(0, 1), (0, 0), (2, 1), (2, 0), (1, 1)]
cliques:  0 mip: 35
C:  25.011822506774354
x(0,0) = 22.01	 x(0,1) = 3.75	 x(0,2) = 10.75	 
x(1,0) = 14.38	 x(1,1) = 10.38	 x(1,2) = 17.38	 
x(2,0) = 23.01	 x(2,1) = 5.32	 x(2,2) = 12.32	 
y(0,1,0) = 0.00	 y(1,0,0) = 1.00	 
y(0,2,0) = 1.00	 y(2,0,0) = 0.00	 
y(1,2,0) = 0.50	 y(2,1,0) = 0.50	 
y(0,1,1) = 0.99	 y(1,0,1) = 0.01	 
y(0,2,1) = 0.78	 y(2,0,1) = 0.22	 
y(1,2,1) = 0.49	 y(2,1,1) = 0.51	 
y(0,1,2) = 0.89	 y(1,0,2) = 0.11	 
y(0,2,2) = 0.78	 y(2,0,2) = 0.22	 
y(1,2,2) = 0.06	 y(2,1,2) = 0.94	 
10.378976926260517 5.323780783117436 7
17.378976926260513 12.323780783117437 6
obj:  1.0
erro
[(0, 1), (0, 0), (2, 1), (2, 0), (1, 1)]
cliques:  0 mip: 35
C:  25.011822506774354
x(0,0) = 22.01	 x(0,1) = 3.75	 x(0,2) = 10.75	 
x(1,0) = 14.38	 x(1,1) = 10.38	 x(1,2) = 17.38	 
x(2,0) = 23.01	 x(2,1) = 5.32	 x(2,2) = 12.32	 
y(0,1,0) = 0.00	 y(1,0,0) = 1.00	 
y(0,2,0) = 1.00	 y(2,0,0) = 0.00	 
y(1,2,0) = 0.50	 y(2,1,0) = 0.50	 
y(0,1,1) = 0.99	 y(1,0,1) = 0.01	 
y(0,2,1) = 0.78	 y(2,0,1) = 0.22	 
y(1,2,1) = 0.49	 y(2,1,1) = 0.51	 
y(0,1,2) = 0.89	 y(1,0,2) = 0.11	 
y(0,2,2) = 0.78	 y(2,0,2) = 0.22	 
y(1,2,2) = 0.06	 y(2,1,2) = 0.94	 
10.378976926260517 5.323780783117436 7
17.378976926260513 12.323780783117437 6
obj:  1.0
erro
[(0, 1), (0, 0), (2, 1), (2, 0), (1, 1)]
cliques:  0 mip: 35
C:  25.011822506774354
x(0,0) = 22.01	 x(0,1) = 3.75	 x(0,2) = 10.75	 
x(1,0) = 14.38	 x(1,1) = 10.38	 x(1,2) = 17.38	 
x(2,0) = 23.01	 x(2,1) = 5.32	 x(2,2) = 12.32	 
y(0,1,0) = 0.00	 y(1,0,0) = 1.00	 
y(0,2,0) = 1.00	 y(2,0,0) = 0.00	 
y(1,2,0) = 0.50	 y(2,1,0) = 0.50	 
y(0,1,1) = 0.99	 y(1,0,1) = 0.01	 
y(0,2,1) = 0.78	 y(2,0,1) = 0.22	 
y(1,2,1) = 0.49	 y(2,1,1) = 0.51	 
y(0,1,2) = 0.89	 y(1,0,2) = 0.11	 
y(0,2,2) = 0.78	 y(2,0,2) = 0.22	 
y(1,2,2) = 0.06	 y(2,1,2) = 0.94	 
10.378976926260517 5.323780783117436 7
17.378976926260513 12.323780783117437 6
obj:  1.0
erro
[(0, 1), (0, 0), (2, 1), (2, 0), (1, 1)]
cliques:  0 mip: 35
C:  25.011822506774354
x(0,0) = 22.01	 x(0,1) = 3.75	 x(0,2) = 10.75	 
x(1,0) = 14.38	 x(1,1) = 10.38	 x(1,2) = 17.38	 
x(2,0) = 23.01	 x(2,1) = 5.32	 x(2,2) = 12.32	 
y(0,1,0) = 0.00	 y(1,0,0) = 1.00	 
y(0,2,0) = 1.00	 y(2,0,0) = 0.00	 
y(1,2,0) = 0.50	 y(2,1,0) = 0.50	 
y(0,1,1) = 0.99	 y(1,0,1) = 0.01	 
y(0,2,1) = 0.78	 y(2,0,1) = 0.22	 
y(1,2,1) = 0.49	 y(2,1,1) = 0.51	 
y(0,1,2) = 0.89	 y(1,0,2) = 0.11	 
y(0,2,2) = 0.78	 y(2,0,2) = 0.22	 
y(1,2,2) = 0.06	 y(2,1,2) = 0.94	 
10.378976926260517 5.323780783117436 7
17.378976926260513 12.323780783117437 6
obj:  1.0
erro
[(0, 1), (0, 0), (2, 1), (2, 0), (1, 1)]
cliques:  0 mip: 35
C:  25.011822506774354
x(0,0) = 22.01	 x(0,1) = 3.75	 x(0,2) = 10.75	 
x(1,0) = 14.38	 x(1,1) = 10.38	 x(1,2) = 17.38	 
x(2,0) = 23.01	 x(2,1) = 5.32	 x(2,2) = 12.32	 
y(0,1,0) = 0.00	 y(1,0,0) = 1.00	 
y(0,2,0) = 1.00	 y(2,0,0) = 0.00	 
y(1,2,0) = 0.50	 y(2,1,0) = 0.50	 
y(0,1,1) = 0.99	 y(1,0,1) = 0.01	 
y(0,2,1) = 0.78	 y(2,0,1) = 0.22	 
y(1,2,1) = 0.49	 y(2,1,1) = 0.51	 
y(0,1,2) = 0.89	 y(1,0,2) = 0.11	 
y(0,2,2) = 0.78	 y(2,0,2) = 0.22	 
y(1,2,2) = 0.06	 y(2,1,2) = 0.94	 
10.378976926260517 5.323780783117436 7
17.378976926260513 12.323780783117437 6
obj:  1.0
erro
[(0, 1), (0, 0), (2, 1), (2, 0), (1, 1)]
cliques:  0 mip: 35
C:  25.011822506774354
x(0,0) = 22.01	 x(0,1) = 3.75	 x(0,2) = 10.75	 
x(1,0) = 14.38	 x(1,1) = 10.38	 x(1,2) = 17.38	 
x(2,0) = 23.01	 x(2,1) = 5.32	 x(2,2) = 12.32	 
y(0,1,0) = 0.00	 y(1,0,0) = 1.00	 
y(0,2,0) = 1.00	 y(2,0,0) = 0.00	 
y(1,2,0) = 0.50	 y(2,1,0) = 0.50	 
y(0,1,1) = 0.99	 y(1,0,1) = 0.01	 
y(0,2,1) = 0.78	 y(2,0,1) = 0.22	 
y(1,2,1) = 0.49	 y(2,1,1) = 0.51	 
y(0,1,2) = 0.89	 y(1,0,2) = 0.11	 
y(0,2,2) = 0.78	 y(2,0,2) = 0.22	 
y(1,2,2) = 0.06	 y(2,1,2) = 0.94	 
10.378976926260517 5.323780783117436 7
17.378976926260513 12.323780783117437 6
obj:  1.0
erro
[(0, 1), (0, 0), (2, 1), (2, 0), (1, 1)]
cliques:  0 mip: 35
C:  25.011822506774354
x(0,0) = 22.01	 x(0,1) = 3.75	 x(0,2) = 10.75	 
x(1,0) = 14.38	 x(1,1) = 10.38	 x(1,2) = 17.38	 
x(2,0) = 23.01	 x(2,1) = 5.32	 x(2,2) = 12.32	 
y(0,1,0) = 0.00	 y(1,0,0) = 1.00	 
y(0,2,0) = 1.00	 y(2,0,0) = 0.00	 
y(1,2,0) = 0.50	 y(2,1,0) = 0.50	 
y(0,1,1) = 0.99	 y(1,0,1) = 0.01	 
y(0,2,1) = 0.78	 y(2,0,1) = 0.22	 
y(1,2,1) = 0.49	 y(2,1,1) = 0.51	 
y(0,1,2) = 0.89	 y(1,0,2) = 0.11	 
y(0,2,2) = 0.78	 y(2,0,2) = 0.22	 
y(1,2,2) = 0.06	 y(2,1,2) = 0.94	 
10.378976926260517 5.323780783117436 7
17.378976926260513 12.323780783117437 6
obj:  1.0
erro
[(0, 1), (0, 0), (2, 1), (2, 0), (1, 1)]
cliques:  0 mip: 35
C:  25.011822506774354
x(0,0) = 22.01	 x(0,1) = 3.75	 x(0,2) = 10.75	 
x(1,0) = 14.38	 x(1,1) = 10.38	 x(1,2) = 17.38	 
x(2,0) = 23.01	 x(2,1) = 5.32	 x(2,2) = 12.32	 
y(0,1,0) = 0.00	 y(1,0,0) = 1.00	 
y(0,2,0) = 1.00	 y(2,0,0) = 0.00	 
y(1,2,0) = 0.50	 y(2,1,0) = 0.50	 
y(0,1,1) = 0.99	 y(1,0,1) = 0.01	 
y(0,2,1) = 0.78	 y(2,0,1) = 0.22	 
y(1,2,1) = 0.49	 y(2,1,1) = 0.51	 
y(0,1,2) = 0.89	 y(1,0,2) = 0.11	 
y(0,2,2) = 0.78	 y(2,0,2) = 0.22	 
y(1,2,2) = 0.06	 y(2,1,2) = 0.94	 
10.378976926260517 5.323780783117436 7
17.378976926260513 12.323780783117437 6
obj:  1.0
erro
[(0, 1), (0, 0), (2, 1), (2, 0), (1, 1)]
cliques:  0 mip: 35
C:  25.011822506774354
x(0,0) = 22.01	 x(0,1) = 3.75	 x(0,2) = 10.75	 
x(1,0) = 14.38	 x(1,1) = 10.38	 x(1,2) = 17.38	 
x(2,0) = 23.01	 x(2,1) = 5.32	 x(2,2) = 12.32	 
y(0,1,0) = 0.00	 y(1,0,0) = 1.00	 
y(0,2,0) = 1.00	 y(2,0,0) = 0.00	 
y(1,2,0) = 0.50	 y(2,1,0) = 0.50	 
y(0,1,1) = 0.99	 y(1,0,1) = 0.01	 
y(0,2,1) = 0.78	 y(2,0,1) = 0.22	 
y(1,2,1) = 0.49	 y(2,1,1) = 0.51	 
y(0,1,2) = 0.89	 y(1,0,2) = 0.11	 
y(0,2,2) = 0.78	 y(2,0,2) = 0.22	 
y(1,2,2) = 0.06	 y(2,1,2) = 0.94	 
10.378976926260517 5.323780783117436 7
17.378976926260513 12.323780783117437 6
obj:  1.0
erro
[(0, 1), (0, 0), (2, 1), (2, 0), (1, 1)]
cliques:  0 mip: 35
C:  25.011822506774354
x(0,0) = 22.01	 x(0,1) = 3.75	 x(0,2) = 10.75	 
x(1,0) = 14.38	 x(1,1) = 10.38	 x(1,2) = 17.38	 
x(2,0) = 23.01	 x(2,1) = 5.32	 x(2,2) = 12.32	 
y(0,1,0) = 0.00	 y(1,0,0) = 1.00	 
y(0,2,0) = 1.00	 y(2,0,0) = 0.00	 
y(1,2,0) = 0.50	 y(2,1,0) = 0.50	 
y(0,1,1) = 0.99	 y(1,0,1) = 0.01	 
y(0,2,1) = 0.78	 y(2,0,1) = 0.22	 
y(1,2,1) = 0.49	 y(2,1,1) = 0.51	 
y(0,1,2) = 0.89	 y(1,0,2) = 0.11	 
y(0,2,2) = 0.78	 y(2,0,2) = 0.22	 
y(1,2,2) = 0.06	 y(2,1,2) = 0.94	 
10.378976926260517 5.323780783117436 7
17.378976926260513 12.323780783117437 6
obj:  1.0
erro
[(0, 1), (0, 0), (2, 1), (2, 0), (1, 1)]
cliques:  0 mip: 35
C:  25.011822506774354
x(0,0) = 22.01	 x(0,1) = 3.75	 x(0,2) = 10.75	 
x(1,0) = 14.38	 x(1,1) = 10.38	 x(1,2) = 17.38	 
x(2,0) = 23.01	 x(2,1) = 5.32	 x(2,2) = 12.32	 
y(0,1,0) = 0.00	 y(1,0,0) = 1.00	 
y(0,2,0) = 1.00	 y(2,0,0) = 0.00	 
y(1,2,0) = 0.50	 y(2,1,0) = 0.50	 
y(0,1,1) = 0.99	 y(1,0,1) = 0.01	 
y(0,2,1) = 0.78	 y(2,0,1) = 0.22	 
y(1,2,1) = 0.49	 y(2,1,1) = 0.51	 
y(0,1,2) = 0.89	 y(1,0,2) = 0.11	 
y(0,2,2) = 0.78	 y(2,0,2) = 0.22	 
y(1,2,2) = 0.06	 y(2,1,2) = 0.94	 
10.378976926260517 5.323780783117436 7
17.378976926260513 12.323780783117437 6
obj:  1.0
erro
[(0, 1), (0, 0), (2, 1), (2, 0), (1, 1)]
cliques:  0 mip: 35
C:  25.011822506774354
x(0,0) = 22.01	 x(0,1) = 3.75	 x(0,2) = 10.75	 
x(1,0) = 14.38	 x(1,1) = 10.38	 x(1,2) = 17.38	 
x(2,0) = 23.01	 x(2,1) = 5.32	 x(2,2) = 12.32	 
y(0,1,0) = 0.00	 y(1,0,0) = 1.00	 
y(0,2,0) = 1.00	 y(2,0,0) = 0.00	 
y(1,2,0) = 0.50	 y(2,1,0) = 0.50	 
y(0,1,1) = 0.99	 y(1,0,1) = 0.01	 
y(0,2,1) = 0.78	 y(2,0,1) = 0.22	 
y(1,2,1) = 0.49	 y(2,1,1) = 0.51	 
y(0,1,2) = 0.89	 y(1,0,2) = 0.11	 
y(0,2,2) = 0.78	 y(2,0,2) = 0.22	 
y(1,2,2) = 0.06	 y(2,1,2) = 0.94	 
10.378976926260517 5.323780783117436 7
17.378976926260513 12.323780783117437 6
obj:  1.0
erro
[(0, 1), (0, 0), (2, 1), (2, 0), (1, 1)]
cliques:  0 mip: 35
C:  25.011822506774354
x(0,0) = 22.01	 x(0,1) = 3.75	 x(0,2) = 10.75	 
x(1,0) = 14.38	 x(1,1) = 10.38	 x(1,2) = 17.38	 
x(2,0) = 23.01	 x(2,1) = 5.32	 x(2,2) = 12.32	 
y(0,1,0) = 0.00	 y(1,0,0) = 1.00	 
y(0,2,0) = 1.00	 y(2,0,0) = 0.00	 
y(1,2,0) = 0.50	 y(2,1,0) = 0.50	 
y(0,1,1) = 0.99	 y(1,0,1) = 0.01	 
y(0,2,1) = 0.78	 y(2,0,1) = 0.22	 
y(1,2,1) = 0.49	 y(2,1,1) = 0.51	 
y(0,1,2) = 0.89	 y(1,0,2) = 0.11	 
y(0,2,2) = 0.78	 y(2,0,2) = 0.22	 
y(1,2,2) = 0.06	 y(2,1,2) = 0.94	 
10.378976926260517 5.323780783117436 7
17.378976926260513 12.323780783117437 6
obj:  1.0
erro
[(0, 1), (0, 0), (2, 1), (2, 0), (1, 1)]
cliques:  0 mip: 35
C:  25.011822506774354
x(0,0) = 22.01	 x(0,1) = 3.75	 x(0,2) = 10.75	 
x(1,0) = 14.38	 x(1,1) = 10.38	 x(1,2) = 17.38	 
x(2,0) = 23.01	 x(2,1) = 5.32	 x(2,2) = 12.32	 
y(0,1,0) = 0.00	 y(1,0,0) = 1.00	 
y(0,2,0) = 1.00	 y(2,0,0) = 0.00	 
y(1,2,0) = 0.50	 y(2,1,0) = 0.50	 
y(0,1,1) = 0.99	 y(1,0,1) = 0.01	 
y(0,2,1) = 0.78	 y(2,0,1) = 0.22	 
y(1,2,1) = 0.49	 y(2,1,1) = 0.51	 
y(0,1,2) = 0.89	 y(1,0,2) = 0.11	 
y(0,2,2) = 0.78	 y(2,0,2) = 0.22	 
y(1,2,2) = 0.06	 y(2,1,2) = 0.94	 
10.378976926260517 5.323780783117436 7
17.378976926260513 12.323780783117437 6
obj:  1.0
erro
[(0, 1), (0, 0), (2, 1), (2, 0), (1, 1)]
cliques:  0 mip: 35
C:  25.011822506774354
x(0,0) = 22.01	 x(0,1) = 3.75	 x(0,2) = 10.75	 
x(1,0) = 14.38	 x(1,1) = 10.38	 x(1,2) = 17.38	 
x(2,0) = 23.01	 x(2,1) = 5.32	 x(2,2) = 12.32	 
y(0,1,0) = 0.00	 y(1,0,0) = 1.00	 
y(0,2,0) = 1.00	 y(2,0,0) = 0.00	 
y(1,2,0) = 0.50	 y(2,1,0) = 0.50	 
y(0,1,1) = 0.99	 y(1,0,1) = 0.01	 
y(0,2,1) = 0.78	 y(2,0,1) = 0.22	 
y(1,2,1) = 0.49	 y(2,1,1) = 0.51	 
y(0,1,2) = 0.89	 y(1,0,2) = 0.11	 
y(0,2,2) = 0.78	 y(2,0,2) = 0.22	 
y(1,2,2) = 0.06	 y(2,1,2) = 0.94	 
10.378976926260517 5.323780783117436 7
17.378976926260513 12.323780783117437 6
obj:  1.0
erro
[(0, 1), (0, 0), (2, 1), (2, 0), (1, 1)]
cliques:  0 mip: 35
C:  25.011822506774354
x(0,0) = 22.01	 x(0,1) = 3.75	 x(0,2) = 10.75	 
x(1,0) = 14.38	 x(1,1) = 10.38	 x(1,2) = 17.38	 
x(2,0) = 23.01	 x(2,1) = 5.32	 x(2,2) = 12.32	 
y(0,1,0) = 0.00	 y(1,0,0) = 1.00	 
y(0,2,0) = 1.00	 y(2,0,0) = 0.00	 
y(1,2,0) = 0.50	 y(2,1,0) = 0.50	 
y(0,1,1) = 0.99	 y(1,0,1) = 0.01	 
y(0,2,1) = 0.78	 y(2,0,1) = 0.22	 
y(1,2,1) = 0.49	 y(2,1,1) = 0.51	 
y(0,1,2) = 0.89	 y(1,0,2) = 0.11	 
y(0,2,2) = 0.78	 y(2,0,2) = 0.22	 
y(1,2,2) = 0.06	 y(2,1,2) = 0.94	 
10.378976926260517 5.323780783117436 7
17.378976926260513 12.323780783117437 6
obj:  1.0
erro
[(0, 1), (0, 0), (2, 1), (2, 0), (1, 1)]
cliques:  0 mip: 35
C:  25.011822506774354
x(0,0) = 22.01	 x(0,1) = 3.75	 x(0,2) = 10.75	 
x(1,0) = 14.38	 x(1,1) = 10.38	 x(1,2) = 17.38	 
x(2,0) = 23.01	 x(2,1) = 5.32	 x(2,2) = 12.32	 
y(0,1,0) = 0.00	 y(1,0,0) = 1.00	 
y(0,2,0) = 1.00	 y(2,0,0) = 0.00	 
y(1,2,0) = 0.50	 y(2,1,0) = 0.50	 
y(0,1,1) = 0.99	 y(1,0,1) = 0.01	 
y(0,2,1) = 0.78	 y(2,0,1) = 0.22	 
y(1,2,1) = 0.49	 y(2,1,1) = 0.51	 
y(0,1,2) = 0.89	 y(1,0,2) = 0.11	 
y(0,2,2) = 0.78	 y(2,0,2) = 0.22	 
y(1,2,2) = 0.06	 y(2,1,2) = 0.94	 
10.378976926260517 5.323780783117436 7
17.378976926260513 12.323780783117437 6
obj:  1.0
erro
[(0, 1), (0, 0), (2, 1), (2, 0), (1, 1)]
cliques:  0 mip: 0
iterações: 31 cortes cliques encontrados: 2 mip: 1019 objective:  25.011822506774354
Coin0506I Presolve 65 (-61) rows, 39 (-25) columns and 202 (-86) elements
Clp1000I sum of infeasibilities 3.24924e-06 - average 4.99884e-08, 0 fixed columns
Coin0506I Presolve 65 (0) rows, 39 (0) columns and 202 (0) elements
Clp0029I End of values pass after 39 iterations
Clp0000I Optimal - objective value 15
Clp0000I Optimal - objective value 15
Coin0511I After Postsolve, objective 15, infeasibilities - dual 0 (0), primal 0 (0)
Clp0000I Optimal - objective value 15
Clp0000I Optimal - objective value 15
Clp0000I Optimal - objective value 15
Coin0511I After Postsolve, objective 15, infeasibilities - dual 0 (0), primal 0 (0)
Clp0032I Optimal objective 15 - 0 iterations time 0.002, Presolve 0.00, Idiot 0.00
Coin3009W Conflict graph built in 0.000 seconds, density: 0.178%
